p edge 250 3124
e 0 2
e 0 12
e 0 22
e 0 29
e 0 40
e 0 58
e 0 80
e 0 85
e 0 102
e 0 107
e 0 109
e 0 121
e 0 129
e 0 140
e 0 143
e 0 145
e 0 148
e 0 167
e 0 201
e 0 204
e 0 222
e 0 223
e 1 13
e 1 17
e 1 52
e 1 58
e 1 62
e 1 78
e 1 98
e 1 104
e 1 120
e 1 131
e 1 132
e 1 136
e 1 163
e 1 205
e 1 209
e 2 19
e 2 24
e 2 33
e 2 51
e 2 55
e 2 66
e 2 69
e 2 79
e 2 88
e 2 91
e 2 107
e 2 110
e 2 117
e 2 122
e 2 131
e 2 145
e 2 154
e 2 163
e 2 188
e 2 192
e 2 194
e 2 197
e 2 211
e 2 232
e 2 239
e 2 241
e 2 244
e 3 12
e 3 19
e 3 29
e 3 32
e 3 44
e 3 57
e 3 60
e 3 78
e 3 98
e 3 100
e 3 108
e 3 115
e 3 121
e 3 124
e 3 138
e 3 142
e 3 161
e 3 168
e 3 173
e 3 179
e 3 190
e 3 191
e 3 195
e 3 205
e 3 218
e 3 227
e 3 231
e 3 232
e 3 239
e 3 247
e 4 14
e 4 17
e 4 29
e 4 30
e 4 31
e 4 37
e 4 48
e 4 54
e 4 64
e 4 65
e 4 67
e 4 106
e 4 119
e 4 122
e 4 139
e 4 150
e 4 151
e 4 153
e 4 160
e 4 165
e 4 186
e 4 187
e 4 191
e 4 209
e 4 210
e 4 213
e 4 214
e 4 215
e 4 222
e 4 227
e 4 241
e 5 42
e 5 78
e 5 86
e 5 111
e 5 129
e 5 145
e 5 148
e 5 152
e 5 154
e 5 170
e 5 173
e 5 174
e 5 214
e 5 217
e 5 218
e 5 223
e 5 231
e 5 233
e 5 239
e 6 11
e 6 12
e 6 21
e 6 43
e 6 49
e 6 54
e 6 57
e 6 58
e 6 67
e 6 69
e 6 75
e 6 77
e 6 78
e 6 96
e 6 103
e 6 124
e 6 145
e 6 147
e 6 165
e 6 173
e 6 179
e 6 197
e 6 209
e 6 212
e 6 219
e 6 239
e 6 242
e 7 15
e 7 33
e 7 41
e 7 70
e 7 78
e 7 85
e 7 86
e 7 88
e 7 92
e 7 93
e 7 100
e 7 110
e 7 113
e 7 121
e 7 148
e 7 161
e 7 164
e 7 169
e 7 185
e 7 190
e 7 201
e 7 231
e 7 238
e 7 243
e 8 19
e 8 46
e 8 58
e 8 61
e 8 124
e 8 134
e 8 159
e 8 162
e 8 168
e 8 184
e 8 185
e 8 199
e 8 201
e 8 232
e 8 239
e 8 242
e 8 246
e 9 16
e 9 20
e 9 32
e 9 51
e 9 55
e 9 56
e 9 57
e 9 60
e 9 101
e 9 109
e 9 135
e 9 137
e 9 148
e 9 157
e 9 162
e 9 172
e 9 177
e 9 186
e 9 196
e 9 208
e 9 216
e 9 224
e 9 228
e 9 231
e 9 244
e 10 12
e 10 52
e 10 68
e 10 74
e 10 77
e 10 94
e 10 103
e 10 109
e 10 110
e 10 116
e 10 127
e 10 130
e 10 131
e 10 140
e 10 156
e 10 163
e 10 175
e 10 183
e 10 186
e 10 199
e 10 212
e 10 226
e 10 233
e 10 247
e 11 27
e 11 42
e 11 66
e 11 71
e 11 78
e 11 91
e 11 93
e 11 95
e 11 96
e 11 120
e 11 123
e 11 138
e 11 139
e 11 141
e 11 146
e 11 153
e 11 155
e 11 179
e 11 186
e 11 220
e 11 228
e 11 229
e 11 236
e 12 13
e 12 30
e 12 47
e 12 54
e 12 74
e 12 76
e 12 85
e 12 87
e 12 92
e 12 94
e 12 99
e 12 114
e 12 139
e 12 144
e 12 147
e 12 148
e 12 156
e 12 157
e 12 163
e 12 182
e 12 184
e 12 227
e 12 237
e 12 239
e 12 249
e 13 16
e 13 20
e 13 39
e 13 61
e 13 64
e 13 74
e 13 77
e 13 91
e 13 118
e 13 150
e 13 151
e 13 156
e 13 163
e 13 169
e 13 170
e 13 173
e 13 174
e 13 192
e 13 207
e 13 228
e 14 24
e 14 29
e 14 31
e 14 45
e 14 46
e 14 58
e 14 68
e 14 81
e 14 99
e 14 111
e 14 116
e 14 127
e 14 130
e 14 141
e 14 162
e 14 169
e 14 176
e 14 186
e 14 195
e 14 204
e 14 218
e 14 219
e 14 221
e 14 225
e 14 233
e 15 26
e 15 29
e 15 52
e 15 57
e 15 101
e 15 102
e 15 113
e 15 134
e 15 135
e 15 141
e 15 161
e 15 165
e 15 174
e 15 185
e 15 189
e 15 192
e 15 196
e 15 201
e 15 202
e 15 229
e 15 233
e 15 245
e 16 20
e 16 22
e 16 43
e 16 47
e 16 68
e 16 77
e 16 78
e 16 82
e 16 88
e 16 90
e 16 101
e 16 103
e 16 109
e 16 120
e 16 136
e 16 140
e 16 145
e 16 150
e 16 151
e 16 155
e 16 161
e 16 172
e 16 189
e 16 192
e 16 194
e 16 198
e 16 231
e 16 235
e 16 239
e 17 48
e 17 50
e 17 61
e 17 72
e 17 81
e 17 87
e 17 93
e 17 96
e 17 111
e 17 127
e 17 131
e 17 151
e 17 154
e 17 159
e 17 168
e 17 172
e 17 202
e 17 203
e 17 210
e 17 224
e 17 228
e 17 234
e 17 240
e 18 36
e 18 41
e 18 65
e 18 68
e 18 89
e 18 104
e 18 126
e 18 151
e 18 178
e 18 190
e 18 218
e 18 221
e 18 226
e 18 238
e 19 27
e 19 34
e 19 63
e 19 69
e 19 73
e 19 82
e 19 105
e 19 121
e 19 126
e 19 134
e 19 142
e 19 147
e 19 157
e 19 160
e 19 163
e 19 165
e 19 179
e 19 189
e 19 214
e 19 215
e 19 230
e 19 245
e 20 39
e 20 40
e 20 43
e 20 60
e 20 72
e 20 77
e 20 81
e 20 91
e 20 99
e 20 109
e 20 110
e 20 111
e 20 114
e 20 149
e 20 183
e 20 188
e 20 196
e 20 200
e 20 201
e 20 214
e 20 220
e 20 226
e 21 26
e 21 32
e 21 50
e 21 56
e 21 66
e 21 73
e 21 78
e 21 91
e 21 107
e 21 108
e 21 115
e 21 116
e 21 121
e 21 141
e 21 145
e 21 153
e 21 155
e 21 162
e 21 163
e 21 169
e 21 175
e 21 184
e 21 187
e 21 194
e 21 218
e 21 224
e 21 225
e 21 226
e 21 235
e 22 25
e 22 66
e 22 73
e 22 80
e 22 89
e 22 98
e 22 101
e 22 106
e 22 109
e 22 123
e 22 130
e 22 134
e 22 146
e 22 165
e 22 189
e 22 198
e 22 211
e 22 218
e 22 222
e 22 235
e 22 236
e 22 239
e 22 240
e 22 246
e 23 32
e 23 70
e 23 76
e 23 87
e 23 95
e 23 106
e 23 108
e 23 141
e 23 167
e 23 169
e 23 179
e 23 181
e 23 195
e 23 197
e 23 205
e 23 228
e 23 243
e 23 249
e 24 27
e 24 28
e 24 53
e 24 63
e 24 109
e 24 111
e 24 115
e 24 116
e 24 128
e 24 152
e 24 153
e 24 166
e 24 209
e 24 210
e 24 212
e 24 218
e 24 239
e 25 44
e 25 47
e 25 56
e 25 61
e 25 69
e 25 80
e 25 99
e 25 147
e 25 151
e 25 158
e 25 164
e 25 165
e 25 172
e 25 191
e 25 193
e 25 199
e 25 207
e 25 220
e 25 240
e 25 249
e 26 31
e 26 34
e 26 54
e 26 65
e 26 80
e 26 124
e 26 156
e 26 167
e 26 172
e 26 177
e 26 180
e 26 188
e 26 202
e 26 210
e 26 216
e 26 218
e 26 237
e 26 240
e 26 245
e 27 30
e 27 37
e 27 39
e 27 62
e 27 85
e 27 99
e 27 105
e 27 110
e 27 114
e 27 127
e 27 153
e 27 156
e 27 172
e 27 177
e 27 181
e 27 182
e 27 206
e 27 229
e 27 232
e 27 246
e 27 248
e 28 57
e 28 66
e 28 67
e 28 71
e 28 72
e 28 86
e 28 90
e 28 102
e 28 103
e 28 116
e 28 137
e 28 157
e 28 159
e 28 161
e 28 171
e 28 187
e 28 217
e 28 229
e 28 242
e 29 43
e 29 54
e 29 58
e 29 72
e 29 78
e 29 93
e 29 101
e 29 111
e 29 117
e 29 122
e 29 136
e 29 165
e 29 166
e 29 175
e 29 194
e 29 205
e 29 211
e 29 216
e 29 233
e 29 234
e 29 235
e 29 236
e 29 240
e 30 32
e 30 33
e 30 36
e 30 44
e 30 52
e 30 71
e 30 89
e 30 97
e 30 98
e 30 101
e 30 152
e 30 157
e 30 160
e 30 161
e 30 171
e 30 189
e 30 198
e 30 202
e 30 207
e 30 235
e 30 237
e 30 239
e 30 245
e 31 33
e 31 38
e 31 46
e 31 56
e 31 60
e 31 62
e 31 63
e 31 67
e 31 69
e 31 77
e 31 82
e 31 90
e 31 96
e 31 115
e 31 128
e 31 130
e 31 135
e 31 143
e 31 184
e 31 187
e 31 210
e 31 218
e 31 222
e 31 224
e 31 231
e 32 36
e 32 58
e 32 62
e 32 63
e 32 84
e 32 91
e 32 97
e 32 103
e 32 115
e 32 118
e 32 119
e 32 132
e 32 135
e 32 136
e 32 144
e 32 164
e 32 174
e 32 202
e 32 208
e 32 219
e 32 232
e 32 248
e 33 37
e 33 47
e 33 62
e 33 64
e 33 72
e 33 75
e 33 95
e 33 107
e 33 110
e 33 113
e 33 122
e 33 123
e 33 127
e 33 136
e 33 141
e 33 148
e 33 158
e 33 160
e 33 166
e 33 184
e 33 194
e 33 204
e 33 217
e 33 227
e 33 244
e 33 247
e 33 249
e 34 43
e 34 50
e 34 54
e 34 69
e 34 83
e 34 98
e 34 103
e 34 106
e 34 113
e 34 125
e 34 133
e 34 138
e 34 143
e 34 147
e 34 156
e 34 162
e 34 168
e 34 187
e 34 205
e 34 220
e 34 222
e 34 244
e 34 247
e 34 249
e 35 53
e 35 56
e 35 88
e 35 108
e 35 113
e 35 127
e 35 139
e 35 150
e 35 158
e 35 167
e 35 169
e 35 171
e 35 180
e 35 191
e 35 194
e 35 197
e 35 212
e 35 214
e 35 224
e 35 230
e 35 231
e 36 44
e 36 52
e 36 65
e 36 72
e 36 96
e 36 109
e 36 110
e 36 127
e 36 156
e 36 182
e 36 191
e 36 196
e 36 240
e 37 41
e 37 47
e 37 48
e 37 59
e 37 79
e 37 105
e 37 110
e 37 120
e 37 121
e 37 132
e 37 139
e 37 148
e 37 155
e 37 166
e 37 168
e 37 174
e 37 183
e 37 186
e 37 205
e 37 207
e 37 212
e 37 223
e 37 238
e 38 50
e 38 51
e 38 54
e 38 81
e 38 87
e 38 111
e 38 118
e 38 135
e 38 136
e 38 142
e 38 145
e 38 146
e 38 153
e 38 175
e 38 177
e 38 184
e 38 189
e 38 199
e 38 200
e 38 202
e 38 213
e 38 218
e 38 243
e 39 53
e 39 64
e 39 75
e 39 109
e 39 116
e 39 118
e 39 121
e 39 137
e 39 146
e 39 162
e 39 164
e 39 168
e 39 178
e 39 197
e 39 198
e 39 200
e 39 232
e 39 236
e 39 243
e 40 58
e 40 65
e 40 67
e 40 80
e 40 81
e 40 86
e 40 91
e 40 113
e 40 114
e 40 124
e 40 126
e 40 129
e 40 130
e 40 145
e 40 160
e 40 173
e 40 180
e 40 183
e 40 194
e 40 210
e 40 219
e 40 227
e 40 229
e 41 43
e 41 51
e 41 63
e 41 72
e 41 80
e 41 91
e 41 102
e 41 115
e 41 119
e 41 128
e 41 131
e 41 134
e 41 156
e 41 171
e 41 173
e 41 177
e 41 186
e 41 198
e 41 202
e 41 225
e 41 229
e 41 241
e 42 45
e 42 49
e 42 54
e 42 72
e 42 83
e 42 99
e 42 103
e 42 111
e 42 120
e 42 126
e 42 130
e 42 143
e 42 163
e 42 198
e 42 202
e 42 244
e 43 60
e 43 66
e 43 92
e 43 99
e 43 102
e 43 108
e 43 111
e 43 115
e 43 118
e 43 125
e 43 135
e 43 144
e 43 151
e 43 154
e 43 157
e 43 159
e 43 167
e 43 176
e 43 184
e 43 200
e 43 230
e 43 232
e 44 69
e 44 77
e 44 101
e 44 112
e 44 125
e 44 129
e 44 143
e 44 165
e 44 169
e 44 181
e 44 182
e 44 202
e 44 204
e 44 207
e 44 215
e 44 223
e 44 226
e 44 239
e 44 244
e 44 249
e 45 58
e 45 68
e 45 70
e 45 72
e 45 84
e 45 102
e 45 103
e 45 106
e 45 108
e 45 131
e 45 138
e 45 154
e 45 159
e 45 160
e 45 179
e 45 184
e 45 213
e 45 220
e 45 232
e 45 240
e 45 249
e 46 56
e 46 65
e 46 72
e 46 73
e 46 77
e 46 93
e 46 108
e 46 110
e 46 138
e 46 151
e 46 153
e 46 155
e 46 156
e 46 179
e 46 185
e 46 211
e 46 228
e 46 237
e 46 246
e 46 248
e 47 75
e 47 83
e 47 84
e 47 92
e 47 108
e 47 130
e 47 135
e 47 146
e 47 153
e 47 165
e 47 173
e 47 184
e 47 187
e 47 198
e 47 200
e 47 203
e 47 204
e 47 208
e 47 215
e 47 216
e 48 49
e 48 61
e 48 70
e 48 81
e 48 86
e 48 138
e 48 139
e 48 151
e 48 156
e 48 177
e 48 184
e 48 228
e 48 233
e 48 236
e 48 243
e 49 68
e 49 71
e 49 75
e 49 90
e 49 96
e 49 97
e 49 104
e 49 151
e 49 166
e 49 170
e 49 173
e 49 176
e 49 181
e 49 184
e 49 194
e 49 208
e 49 218
e 49 230
e 49 239
e 49 249
e 50 59
e 50 62
e 50 67
e 50 70
e 50 77
e 50 92
e 50 94
e 50 103
e 50 107
e 50 115
e 50 117
e 50 136
e 50 144
e 50 159
e 50 161
e 50 162
e 50 167
e 50 172
e 50 176
e 50 177
e 50 196
e 50 197
e 50 231
e 50 249
e 51 59
e 51 70
e 51 79
e 51 88
e 51 93
e 51 98
e 51 102
e 51 104
e 51 112
e 51 125
e 51 141
e 51 142
e 51 174
e 51 189
e 51 210
e 51 235
e 51 241
e 52 54
e 52 66
e 52 82
e 52 86
e 52 101
e 52 120
e 52 121
e 52 126
e 52 142
e 52 162
e 52 181
e 52 188
e 52 193
e 52 195
e 52 197
e 52 210
e 52 218
e 52 223
e 52 247
e 53 59
e 53 64
e 53 79
e 53 90
e 53 98
e 53 103
e 53 107
e 53 119
e 53 125
e 53 131
e 53 152
e 53 171
e 53 172
e 53 181
e 53 207
e 53 210
e 53 211
e 53 226
e 53 231
e 53 233
e 53 239
e 53 242
e 54 59
e 54 63
e 54 69
e 54 71
e 54 73
e 54 85
e 54 89
e 54 91
e 54 104
e 54 110
e 54 120
e 54 125
e 54 126
e 54 128
e 54 150
e 54 152
e 54 156
e 54 161
e 54 173
e 54 176
e 54 186
e 54 238
e 54 247
e 54 248
e 55 63
e 55 66
e 55 72
e 55 99
e 55 102
e 55 103
e 55 113
e 55 152
e 55 179
e 55 202
e 55 206
e 55 231
e 55 235
e 55 240
e 56 58
e 56 75
e 56 96
e 56 98
e 56 135
e 56 138
e 56 174
e 56 175
e 56 194
e 56 225
e 56 242
e 56 244
e 56 248
e 57 69
e 57 72
e 57 82
e 57 84
e 57 106
e 57 107
e 57 139
e 57 144
e 57 151
e 57 154
e 57 169
e 57 184
e 57 201
e 57 206
e 57 211
e 57 230
e 57 231
e 57 232
e 57 239
e 57 243
e 58 60
e 58 71
e 58 89
e 58 94
e 58 114
e 58 117
e 58 122
e 58 124
e 58 145
e 58 155
e 58 157
e 58 177
e 58 180
e 58 181
e 58 194
e 58 206
e 58 232
e 58 236
e 58 241
e 58 242
e 58 244
e 58 246
e 58 249
e 59 94
e 59 102
e 59 110
e 59 118
e 59 121
e 59 123
e 59 135
e 59 140
e 59 150
e 59 151
e 59 156
e 59 158
e 59 159
e 59 161
e 59 172
e 59 177
e 59 182
e 59 189
e 59 202
e 59 203
e 59 206
e 59 209
e 59 217
e 59 233
e 60 79
e 60 80
e 60 102
e 60 105
e 60 109
e 60 116
e 60 126
e 60 131
e 60 140
e 60 210
e 60 221
e 60 227
e 60 233
e 60 243
e 61 73
e 61 76
e 61 82
e 61 101
e 61 103
e 61 118
e 61 123
e 61 124
e 61 125
e 61 128
e 61 136
e 61 137
e 61 152
e 61 155
e 61 156
e 61 176
e 61 181
e 61 188
e 61 221
e 61 229
e 62 67
e 62 70
e 62 86
e 62 92
e 62 107
e 62 116
e 62 121
e 62 132
e 62 173
e 62 185
e 62 202
e 62 207
e 62 208
e 62 215
e 62 219
e 62 225
e 62 226
e 62 236
e 62 246
e 63 83
e 63 91
e 63 99
e 63 108
e 63 139
e 63 140
e 63 150
e 63 160
e 63 192
e 63 208
e 63 218
e 63 220
e 64 81
e 64 90
e 64 99
e 64 104
e 64 124
e 64 132
e 64 147
e 64 153
e 64 166
e 64 178
e 64 198
e 64 202
e 64 214
e 64 217
e 64 224
e 64 229
e 64 245
e 65 87
e 65 91
e 65 104
e 65 117
e 65 136
e 65 147
e 65 149
e 65 159
e 65 181
e 65 183
e 65 191
e 65 213
e 65 222
e 65 248
e 66 68
e 66 71
e 66 72
e 66 73
e 66 77
e 66 80
e 66 87
e 66 88
e 66 113
e 66 134
e 66 144
e 66 166
e 66 171
e 66 173
e 66 182
e 66 183
e 66 189
e 66 194
e 66 199
e 66 212
e 66 213
e 66 228
e 66 233
e 67 68
e 67 82
e 67 99
e 67 108
e 67 122
e 67 124
e 67 125
e 67 132
e 67 145
e 67 146
e 67 152
e 67 163
e 67 169
e 67 170
e 67 174
e 67 184
e 67 191
e 67 195
e 67 200
e 67 201
e 67 214
e 67 226
e 67 231
e 67 237
e 67 242
e 68 79
e 68 83
e 68 84
e 68 91
e 68 109
e 68 113
e 68 195
e 68 198
e 68 199
e 68 201
e 68 218
e 68 228
e 68 234
e 68 247
e 69 70
e 69 114
e 69 122
e 69 130
e 69 131
e 69 152
e 69 162
e 69 174
e 69 176
e 69 182
e 69 191
e 69 196
e 69 198
e 69 225
e 69 240
e 70 71
e 70 80
e 70 84
e 70 94
e 70 95
e 70 111
e 70 112
e 70 118
e 70 121
e 70 133
e 70 146
e 70 164
e 70 165
e 70 184
e 70 210
e 70 216
e 71 79
e 71 87
e 71 102
e 71 109
e 71 112
e 71 121
e 71 128
e 71 132
e 71 151
e 71 160
e 71 162
e 71 175
e 71 185
e 71 197
e 71 227
e 71 234
e 71 235
e 71 239
e 72 89
e 72 95
e 72 100
e 72 104
e 72 116
e 72 135
e 72 137
e 72 139
e 72 140
e 72 164
e 72 173
e 72 179
e 72 183
e 72 186
e 72 198
e 72 211
e 72 219
e 72 227
e 73 94
e 73 115
e 73 116
e 73 141
e 73 144
e 73 173
e 73 175
e 73 179
e 73 180
e 73 191
e 73 198
e 73 204
e 73 205
e 73 220
e 73 223
e 73 227
e 73 239
e 74 82
e 74 91
e 74 92
e 74 104
e 74 117
e 74 127
e 74 128
e 74 141
e 74 147
e 74 150
e 74 165
e 74 175
e 74 178
e 74 180
e 74 182
e 74 195
e 74 196
e 74 221
e 74 224
e 74 225
e 74 241
e 75 80
e 75 94
e 75 105
e 75 109
e 75 110
e 75 113
e 75 114
e 75 136
e 75 161
e 75 170
e 75 172
e 75 176
e 75 217
e 75 237
e 76 81
e 76 84
e 76 104
e 76 106
e 76 107
e 76 118
e 76 123
e 76 134
e 76 135
e 76 137
e 76 145
e 76 167
e 76 168
e 76 177
e 76 179
e 76 181
e 76 208
e 76 211
e 76 245
e 77 78
e 77 81
e 77 87
e 77 92
e 77 94
e 77 109
e 77 111
e 77 115
e 77 121
e 77 122
e 77 123
e 77 132
e 77 137
e 77 148
e 77 171
e 77 194
e 77 196
e 77 202
e 77 204
e 77 207
e 77 208
e 77 209
e 77 218
e 77 219
e 77 229
e 78 79
e 78 80
e 78 82
e 78 85
e 78 90
e 78 127
e 78 147
e 78 171
e 78 174
e 78 177
e 78 185
e 78 190
e 78 207
e 79 86
e 79 120
e 79 137
e 79 146
e 79 148
e 79 150
e 79 157
e 79 173
e 79 179
e 79 180
e 79 193
e 79 194
e 79 216
e 79 218
e 80 86
e 80 88
e 80 111
e 80 128
e 80 138
e 80 139
e 80 142
e 80 145
e 80 159
e 80 163
e 80 166
e 80 168
e 80 181
e 80 197
e 80 222
e 80 225
e 80 232
e 80 248
e 81 93
e 81 115
e 81 125
e 81 130
e 81 146
e 81 152
e 81 166
e 81 173
e 81 182
e 81 207
e 81 213
e 81 224
e 81 225
e 81 230
e 81 249
e 82 83
e 82 91
e 82 111
e 82 116
e 82 117
e 82 122
e 82 125
e 82 144
e 82 149
e 82 150
e 82 176
e 82 194
e 82 195
e 82 204
e 82 215
e 82 225
e 83 90
e 83 99
e 83 114
e 83 122
e 83 129
e 83 131
e 83 134
e 83 149
e 83 155
e 83 179
e 83 193
e 83 210
e 83 218
e 83 219
e 83 229
e 83 231
e 83 243
e 83 245
e 84 114
e 84 128
e 84 131
e 84 143
e 84 144
e 84 149
e 84 154
e 84 170
e 84 186
e 84 187
e 84 200
e 84 209
e 84 220
e 84 228
e 85 88
e 85 100
e 85 104
e 85 120
e 85 129
e 85 158
e 85 166
e 85 171
e 85 182
e 85 206
e 85 211
e 85 217
e 85 226
e 85 245
e 86 88
e 86 98
e 86 104
e 86 105
e 86 151
e 86 162
e 86 178
e 86 179
e 86 188
e 86 192
e 86 194
e 86 201
e 86 219
e 86 225
e 86 226
e 86 228
e 86 246
e 87 95
e 87 96
e 87 103
e 87 111
e 87 118
e 87 133
e 87 135
e 87 137
e 87 138
e 87 139
e 87 140
e 87 145
e 87 149
e 87 154
e 87 155
e 87 156
e 87 157
e 87 158
e 87 167
e 87 176
e 87 177
e 87 178
e 87 198
e 87 205
e 87 213
e 87 226
e 87 234
e 87 246
e 87 248
e 87 249
e 88 90
e 88 97
e 88 102
e 88 111
e 88 116
e 88 120
e 88 121
e 88 128
e 88 141
e 88 143
e 88 151
e 88 156
e 88 158
e 88 165
e 88 190
e 88 191
e 88 201
e 88 203
e 88 208
e 88 234
e 88 249
e 89 104
e 89 108
e 89 110
e 89 142
e 89 174
e 89 177
e 89 186
e 89 189
e 89 198
e 89 206
e 89 207
e 89 226
e 89 238
e 89 241
e 89 246
e 89 247
e 89 248
e 90 91
e 90 93
e 90 94
e 90 99
e 90 100
e 90 106
e 90 132
e 90 140
e 90 142
e 90 146
e 90 147
e 90 149
e 90 156
e 90 161
e 90 175
e 90 185
e 90 191
e 90 205
e 90 212
e 90 225
e 90 229
e 90 234
e 90 245
e 90 247
e 91 109
e 91 166
e 91 195
e 91 201
e 91 208
e 91 224
e 91 230
e 91 232
e 91 241
e 92 96
e 92 113
e 92 136
e 92 158
e 92 162
e 92 166
e 92 169
e 92 170
e 92 177
e 92 203
e 92 205
e 92 225
e 93 124
e 93 126
e 93 147
e 93 154
e 93 158
e 93 161
e 93 164
e 93 166
e 93 174
e 93 183
e 93 190
e 93 195
e 93 199
e 93 205
e 93 247
e 94 101
e 94 107
e 94 110
e 94 126
e 94 140
e 94 152
e 94 157
e 94 166
e 94 167
e 94 169
e 94 188
e 94 202
e 94 207
e 94 232
e 94 237
e 94 240
e 95 100
e 95 118
e 95 122
e 95 136
e 95 144
e 95 154
e 95 157
e 95 163
e 95 176
e 95 181
e 95 187
e 95 218
e 95 233
e 95 237
e 95 242
e 96 102
e 96 107
e 96 125
e 96 141
e 96 147
e 96 162
e 96 167
e 96 180
e 96 187
e 96 189
e 96 220
e 96 232
e 96 243
e 97 104
e 97 125
e 97 137
e 97 167
e 97 192
e 97 228
e 98 99
e 98 110
e 98 111
e 98 116
e 98 118
e 98 133
e 98 151
e 98 157
e 98 166
e 98 193
e 98 198
e 98 235
e 98 240
e 99 126
e 99 133
e 99 141
e 99 142
e 99 144
e 99 145
e 99 151
e 99 155
e 99 156
e 99 157
e 99 159
e 99 174
e 99 184
e 99 191
e 99 198
e 99 205
e 99 214
e 100 129
e 100 144
e 100 154
e 100 158
e 100 161
e 100 188
e 100 197
e 100 205
e 100 219
e 100 242
e 100 243
e 101 130
e 101 134
e 101 151
e 101 152
e 101 154
e 101 158
e 101 163
e 101 164
e 101 169
e 101 189
e 101 193
e 101 199
e 101 212
e 101 216
e 101 218
e 101 227
e 101 246
e 101 248
e 102 106
e 102 109
e 102 135
e 102 137
e 102 152
e 102 154
e 102 158
e 102 167
e 102 170
e 102 182
e 102 246
e 103 114
e 103 121
e 103 135
e 103 138
e 103 149
e 103 151
e 103 168
e 103 174
e 103 180
e 103 184
e 103 185
e 103 187
e 103 189
e 103 190
e 103 207
e 103 208
e 103 225
e 103 239
e 103 241
e 103 247
e 104 115
e 104 118
e 104 120
e 104 125
e 104 149
e 104 166
e 104 172
e 104 196
e 104 217
e 104 223
e 104 243
e 104 248
e 104 249
e 105 113
e 105 114
e 105 132
e 105 142
e 105 160
e 105 165
e 105 189
e 105 203
e 105 204
e 105 208
e 105 213
e 105 228
e 105 241
e 106 108
e 106 110
e 106 117
e 106 125
e 106 149
e 106 163
e 106 169
e 106 172
e 106 173
e 106 175
e 106 180
e 106 186
e 106 187
e 106 188
e 106 205
e 106 221
e 106 231
e 106 241
e 106 243
e 107 125
e 107 126
e 107 128
e 107 138
e 107 147
e 107 148
e 107 171
e 107 189
e 107 192
e 107 194
e 107 217
e 107 231
e 107 238
e 107 248
e 108 115
e 108 118
e 108 124
e 108 129
e 108 134
e 108 136
e 108 147
e 108 155
e 108 161
e 108 202
e 108 203
e 108 237
e 109 111
e 109 113
e 109 122
e 109 129
e 109 134
e 109 140
e 109 154
e 109 163
e 109 185
e 109 191
e 109 192
e 109 194
e 109 208
e 109 228
e 110 118
e 110 131
e 110 134
e 110 155
e 110 167
e 110 191
e 110 194
e 110 197
e 110 206
e 110 219
e 110 224
e 111 124
e 111 140
e 111 147
e 111 156
e 111 163
e 111 176
e 111 178
e 111 183
e 111 199
e 111 203
e 111 217
e 111 222
e 112 113
e 112 115
e 112 124
e 112 126
e 112 136
e 112 139
e 112 143
e 112 153
e 112 177
e 112 181
e 112 183
e 112 189
e 112 193
e 112 198
e 112 213
e 112 236
e 112 244
e 112 248
e 113 118
e 113 124
e 113 127
e 113 145
e 113 156
e 113 157
e 113 164
e 113 170
e 113 196
e 113 197
e 113 215
e 113 219
e 113 222
e 113 227
e 113 245
e 114 138
e 114 145
e 114 160
e 114 164
e 114 165
e 114 191
e 114 201
e 114 203
e 114 209
e 114 214
e 115 130
e 115 146
e 115 152
e 115 169
e 115 185
e 115 193
e 115 198
e 115 214
e 115 217
e 115 228
e 115 231
e 115 239
e 115 245
e 116 140
e 116 154
e 116 155
e 116 163
e 116 167
e 116 177
e 116 182
e 116 185
e 116 189
e 116 205
e 116 209
e 116 241
e 117 131
e 117 137
e 117 174
e 117 178
e 117 187
e 117 202
e 117 220
e 117 221
e 117 222
e 117 224
e 118 134
e 118 136
e 118 141
e 118 154
e 118 159
e 118 160
e 118 170
e 118 173
e 118 185
e 118 200
e 118 217
e 118 247
e 119 128
e 119 131
e 119 140
e 119 141
e 119 158
e 119 167
e 119 185
e 119 187
e 119 188
e 119 199
e 119 208
e 119 210
e 119 215
e 119 234
e 119 235
e 119 237
e 119 247
e 119 249
e 120 123
e 120 140
e 120 147
e 120 159
e 120 162
e 120 171
e 120 173
e 120 178
e 120 180
e 120 188
e 120 189
e 120 202
e 120 205
e 120 215
e 120 228
e 120 230
e 120 236
e 121 134
e 121 148
e 121 177
e 121 187
e 121 191
e 121 200
e 121 202
e 121 207
e 121 212
e 121 213
e 121 220
e 121 228
e 121 242
e 122 124
e 122 131
e 122 133
e 122 143
e 122 151
e 122 152
e 122 173
e 122 174
e 122 184
e 122 201
e 122 204
e 122 207
e 122 209
e 122 213
e 122 215
e 122 222
e 122 228
e 122 236
e 122 237
e 122 243
e 122 248
e 123 143
e 123 146
e 123 155
e 123 170
e 123 171
e 123 172
e 123 174
e 123 182
e 123 191
e 123 210
e 123 217
e 123 220
e 123 228
e 123 248
e 124 150
e 124 168
e 124 188
e 124 197
e 124 204
e 124 209
e 124 215
e 124 220
e 124 231
e 124 238
e 124 239
e 124 240
e 124 247
e 125 126
e 125 134
e 125 135
e 125 137
e 125 142
e 125 160
e 125 198
e 125 204
e 125 218
e 125 237
e 125 241
e 126 127
e 126 131
e 126 144
e 126 154
e 126 160
e 126 185
e 126 186
e 126 187
e 126 214
e 126 223
e 126 224
e 126 238
e 127 132
e 127 156
e 127 157
e 127 162
e 127 173
e 127 181
e 127 198
e 127 200
e 127 211
e 127 220
e 127 243
e 127 245
e 128 131
e 128 136
e 128 145
e 128 178
e 128 179
e 128 191
e 128 192
e 128 206
e 128 245
e 128 246
e 128 247
e 128 248
e 129 132
e 129 152
e 129 158
e 129 166
e 129 171
e 129 180
e 129 186
e 129 195
e 129 201
e 129 217
e 129 236
e 129 242
e 130 140
e 130 150
e 130 151
e 130 158
e 130 167
e 130 177
e 130 179
e 130 206
e 130 209
e 130 210
e 130 225
e 130 226
e 130 230
e 130 235
e 130 236
e 130 237
e 130 241
e 131 141
e 131 148
e 131 164
e 131 187
e 131 198
e 131 205
e 131 208
e 131 214
e 131 219
e 131 235
e 131 242
e 131 249
e 132 133
e 132 136
e 132 149
e 132 153
e 132 179
e 132 183
e 132 187
e 132 200
e 132 202
e 132 206
e 132 209
e 132 210
e 132 222
e 132 226
e 132 243
e 132 248
e 133 136
e 133 159
e 133 168
e 133 169
e 133 184
e 133 188
e 133 193
e 133 196
e 133 212
e 133 218
e 133 226
e 134 159
e 134 160
e 134 164
e 134 166
e 134 173
e 134 174
e 134 213
e 134 219
e 134 220
e 135 138
e 135 161
e 135 162
e 135 205
e 135 206
e 135 211
e 135 218
e 135 221
e 135 227
e 136 151
e 136 154
e 136 187
e 136 194
e 136 195
e 136 201
e 136 203
e 136 211
e 136 215
e 136 232
e 137 160
e 137 164
e 137 187
e 137 196
e 137 203
e 137 206
e 137 210
e 137 217
e 137 221
e 137 226
e 137 227
e 137 244
e 138 140
e 138 145
e 138 153
e 138 162
e 138 177
e 138 184
e 138 185
e 138 199
e 138 206
e 138 215
e 138 226
e 138 235
e 138 236
e 139 143
e 139 158
e 139 165
e 139 190
e 139 196
e 139 211
e 139 220
e 139 227
e 139 229
e 139 234
e 139 242
e 139 244
e 139 245
e 139 246
e 140 142
e 140 145
e 140 164
e 140 166
e 140 171
e 140 176
e 140 187
e 140 202
e 140 206
e 140 207
e 140 210
e 140 224
e 140 237
e 140 240
e 140 245
e 140 247
e 141 150
e 141 161
e 141 162
e 141 164
e 141 167
e 141 169
e 141 171
e 141 178
e 141 182
e 141 188
e 141 215
e 141 219
e 141 225
e 141 242
e 141 249
e 142 144
e 142 145
e 142 166
e 142 181
e 142 200
e 142 201
e 142 209
e 142 216
e 142 217
e 142 237
e 142 249
e 143 163
e 143 164
e 143 183
e 143 188
e 143 196
e 143 199
e 143 200
e 143 205
e 143 228
e 143 237
e 143 242
e 143 244
e 144 159
e 144 162
e 144 164
e 144 180
e 144 185
e 144 193
e 144 195
e 144 206
e 144 207
e 144 219
e 144 220
e 144 221
e 144 227
e 144 228
e 144 232
e 144 239
e 145 164
e 145 166
e 145 173
e 145 213
e 145 226
e 146 148
e 146 159
e 146 162
e 146 178
e 146 179
e 146 193
e 146 195
e 146 210
e 146 230
e 147 155
e 147 159
e 147 160
e 147 192
e 147 195
e 147 224
e 147 227
e 147 233
e 147 235
e 147 236
e 147 239
e 148 151
e 148 181
e 148 198
e 148 201
e 148 211
e 148 230
e 148 247
e 149 152
e 149 159
e 149 160
e 149 179
e 149 181
e 149 186
e 149 192
e 149 234
e 149 239
e 149 244
e 150 168
e 150 170
e 150 180
e 150 190
e 150 194
e 150 202
e 150 207
e 150 208
e 150 217
e 150 221
e 150 222
e 150 224
e 150 227
e 150 233
e 150 245
e 150 249
e 151 152
e 151 171
e 151 178
e 151 185
e 151 197
e 151 213
e 151 236
e 152 154
e 152 155
e 152 164
e 152 165
e 152 166
e 152 170
e 152 178
e 152 190
e 152 201
e 152 204
e 152 211
e 152 215
e 152 218
e 152 231
e 152 236
e 153 159
e 153 165
e 153 173
e 153 184
e 153 186
e 153 187
e 153 192
e 153 193
e 153 203
e 153 204
e 153 222
e 153 226
e 153 235
e 153 247
e 154 157
e 154 161
e 154 171
e 154 172
e 154 173
e 154 174
e 154 183
e 154 188
e 154 205
e 154 208
e 154 216
e 154 243
e 154 245
e 155 156
e 155 159
e 155 168
e 155 178
e 155 180
e 155 193
e 155 196
e 155 197
e 155 212
e 155 220
e 155 224
e 155 242
e 156 176
e 156 184
e 156 193
e 156 199
e 156 202
e 156 214
e 156 221
e 157 162
e 157 163
e 157 165
e 157 174
e 157 206
e 157 210
e 157 221
e 157 225
e 157 245
e 158 168
e 158 179
e 158 193
e 158 194
e 158 201
e 158 203
e 158 211
e 158 224
e 158 232
e 158 236
e 158 244
e 158 245
e 159 169
e 159 173
e 159 175
e 159 176
e 159 178
e 159 188
e 159 193
e 159 203
e 159 205
e 159 214
e 159 217
e 159 231
e 159 243
e 160 169
e 160 182
e 160 204
e 160 222
e 160 234
e 161 174
e 161 180
e 161 184
e 161 196
e 161 198
e 161 199
e 161 211
e 162 173
e 162 179
e 162 180
e 162 183
e 162 185
e 162 190
e 162 194
e 162 203
e 162 207
e 162 209
e 162 210
e 162 232
e 162 239
e 162 247
e 162 249
e 163 165
e 163 170
e 163 172
e 163 177
e 163 181
e 163 201
e 163 202
e 163 218
e 163 223
e 163 248
e 164 190
e 164 213
e 164 224
e 165 178
e 165 186
e 165 210
e 165 214
e 165 222
e 165 223
e 166 173
e 166 181
e 166 184
e 166 206
e 166 211
e 167 173
e 167 176
e 167 181
e 167 184
e 167 185
e 167 186
e 167 218
e 167 221
e 167 228
e 167 231
e 167 235
e 167 237
e 167 239
e 167 241
e 168 174
e 168 178
e 168 183
e 168 186
e 168 189
e 168 197
e 168 207
e 168 217
e 168 249
e 169 178
e 169 182
e 169 192
e 169 198
e 169 202
e 169 213
e 169 218
e 169 220
e 169 246
e 170 174
e 170 187
e 170 213
e 170 218
e 170 243
e 171 176
e 171 181
e 171 184
e 171 186
e 171 208
e 171 211
e 171 217
e 171 225
e 171 235
e 172 175
e 172 176
e 172 217
e 172 234
e 172 241
e 172 244
e 172 249
e 173 179
e 173 184
e 173 198
e 173 208
e 173 211
e 173 213
e 173 221
e 173 222
e 173 232
e 173 233
e 173 238
e 174 178
e 174 185
e 174 187
e 174 189
e 174 204
e 174 206
e 174 207
e 174 211
e 174 228
e 174 235
e 174 242
e 174 243
e 174 249
e 175 188
e 175 192
e 175 204
e 175 211
e 175 240
e 175 247
e 176 180
e 176 181
e 176 183
e 176 187
e 176 193
e 176 201
e 176 204
e 176 208
e 176 217
e 176 231
e 176 233
e 177 182
e 177 185
e 177 197
e 177 198
e 177 202
e 177 219
e 177 234
e 177 236
e 177 245
e 178 188
e 178 192
e 178 202
e 178 205
e 178 214
e 178 219
e 178 237
e 178 241
e 179 182
e 179 217
e 179 220
e 179 225
e 179 234
e 180 187
e 180 194
e 180 200
e 180 216
e 180 228
e 181 188
e 181 193
e 181 197
e 181 200
e 181 202
e 181 211
e 181 223
e 181 245
e 182 183
e 182 185
e 182 195
e 182 197
e 182 216
e 182 235
e 182 241
e 182 248
e 183 206
e 183 219
e 183 220
e 183 225
e 183 227
e 184 205
e 184 214
e 184 226
e 184 249
e 185 206
e 185 210
e 185 213
e 185 228
e 185 232
e 185 248
e 186 190
e 186 193
e 186 231
e 186 241
e 186 247
e 187 189
e 187 212
e 188 195
e 188 209
e 188 212
e 188 220
e 188 223
e 188 226
e 188 227
e 188 237
e 189 193
e 189 204
e 189 206
e 189 212
e 189 218
e 189 233
e 190 219
e 190 221
e 190 222
e 190 230
e 190 232
e 190 234
e 190 243
e 191 211
e 191 227
e 191 233
e 192 193
e 192 217
e 192 236
e 192 238
e 193 214
e 193 221
e 193 229
e 193 230
e 194 204
e 194 214
e 194 219
e 194 229
e 195 197
e 195 201
e 195 237
e 195 242
e 196 209
e 196 236
e 196 239
e 196 243
e 197 208
e 197 211
e 197 227
e 197 236
e 197 240
e 197 246
e 198 204
e 198 210
e 198 215
e 198 217
e 198 218
e 198 224
e 198 242
e 198 247
e 199 211
e 199 220
e 199 221
e 199 230
e 200 206
e 200 208
e 200 209
e 200 212
e 200 220
e 200 243
e 201 215
e 201 231
e 201 232
e 201 234
e 201 238
e 201 240
e 201 241
e 201 249
e 202 205
e 202 208
e 202 228
e 202 243
e 203 212
e 203 218
e 203 233
e 203 241
e 203 244
e 204 220
e 205 241
e 206 207
e 206 234
e 207 217
e 207 219
e 207 224
e 207 232
e 207 240
e 207 242
e 207 246
e 208 232
e 208 233
e 208 238
e 209 227
e 209 236
e 209 237
e 209 238
e 209 242
e 209 243
e 210 211
e 210 215
e 210 228
e 210 229
e 210 237
e 210 238
e 210 242
e 210 243
e 211 222
e 211 230
e 211 239
e 211 248
e 212 215
e 212 225
e 212 237
e 214 217
e 214 229
e 214 230
e 214 232
e 215 219
e 215 243
e 216 223
e 216 224
e 216 238
e 216 241
e 217 218
e 217 228
e 217 239
e 217 249
e 218 224
e 218 239
e 218 243
e 218 244
e 219 239
e 219 241
e 220 224
e 220 232
e 220 233
e 220 238
e 222 239
e 223 230
e 223 232
e 224 240
e 226 232
e 226 244
e 227 228
e 227 236
e 227 247
e 228 231
e 228 249
e 229 236
e 229 241
e 229 242
e 229 245
e 229 246
e 229 249
e 230 234
e 230 244
e 230 245
e 230 246
e 231 238
e 232 235
e 232 237
e 232 240
e 232 244
e 232 246
e 233 239
e 233 248
e 234 236
e 235 240
e 236 245
e 237 244
e 238 244
e 238 249
e 239 242
e 239 249
e 241 248
e 245 246
e 246 248
e 247 249
